(set-logic QF_SLIA)
(declare-fun var0 () String)
(assert (not (str.in_re var0 (re.++ ((_ re.loop 4 562) (re.++ (re.union (str.to_re "R1S") (re.union (str.to_re "2|") (re.union (str.to_re "lU%") (str.to_re "2k")))) (re.++ (re.union (str.to_re "N") (re.union (str.to_re "1/l") (re.union (str.to_re "('") (str.to_re "`5")))) (re.++ (re.union (str.to_re "g*:") (re.union (str.to_re "l") (re.union (str.to_re "lz$") (str.to_re "fd}")))) (re.union (str.to_re "C#G") (re.union (str.to_re "wLq") (re.union (str.to_re "3") (str.to_re "|{")))))))) (re.++ ((_ re.loop 16 811) (re.++ (re.union (str.to_re "tb") (re.union (str.to_re "&") (re.union (str.to_re "dX+") (str.to_re "\\2")))) (re.++ (re.union (str.to_re "\\t^") (re.union (str.to_re "1e") (re.union (str.to_re "9") (str.to_re "j")))) (re.++ (re.union (str.to_re "40") (re.union (str.to_re "Oy") (re.union (str.to_re "&}D") (str.to_re "=`&")))) (re.union (str.to_re ":p7") (re.union (str.to_re "?") (re.union (str.to_re "RO3") (str.to_re "t+A")))))))) (re.++ ((_ re.loop 19 179) (re.++ (re.union (str.to_re "L") (re.union (str.to_re "!~") (re.union (str.to_re "[") (str.to_re "8")))) (re.++ (re.union (str.to_re "80\u0022") (re.union (str.to_re ">@~") (re.union (str.to_re "a") (str.to_re "Hj")))) (re.++ (re.union (str.to_re "F") (re.union (str.to_re "DJr") (re.union (str.to_re "zH") (str.to_re "NX)")))) (re.union (str.to_re "B") (re.union (str.to_re "m") (re.union (str.to_re "k3}") (str.to_re "ZN")))))))) ((_ re.loop 1 448) (re.++ (re.union (str.to_re "xD") (re.union (str.to_re "N") (re.union (str.to_re "8/") (str.to_re "G:h")))) (re.++ (re.union (str.to_re "$Tg") (re.union (str.to_re "W") (re.union (str.to_re "0&") (str.to_re "m")))) (re.++ (re.union (str.to_re "D") (re.union (str.to_re "R") (re.union (str.to_re "*g3") (str.to_re "7")))) (re.union (str.to_re "'R") (re.union (str.to_re "@") (re.union (str.to_re "z}") (str.to_re ".~-"))))))))))))))
(assert (not (str.in_re var0 (re.++ ((_ re.loop 10 865) (re.++ (re.union (str.to_re "ssD") (re.union (str.to_re "+1(") (re.union (str.to_re ",f6") (str.to_re "O")))) (re.++ (re.union (str.to_re "OX") (re.union (str.to_re "Z") (re.union (str.to_re "E") (str.to_re "X),")))) (re.++ (re.union (str.to_re "+7H") (re.union (str.to_re "D#") (re.union (str.to_re "PW") (str.to_re "&T")))) (re.union (str.to_re "S5") (re.union (str.to_re "~[") (re.union (str.to_re "e") (str.to_re ":")))))))) (re.++ ((_ re.loop 20 916) (re.++ (re.union (str.to_re "b=") (re.union (str.to_re "&(p") (re.union (str.to_re ".") (str.to_re "Fr")))) (re.++ (re.union (str.to_re "l") (re.union (str.to_re "js") (re.union (str.to_re "5]\u0022") (str.to_re "IZ'")))) (re.++ (re.union (str.to_re "yT") (re.union (str.to_re ";#") (re.union (str.to_re "Dy") (str.to_re "Mc")))) (re.union (str.to_re "pB;") (re.union (str.to_re "Dn0") (re.union (str.to_re "E") (str.to_re "cQ")))))))) (re.++ ((_ re.loop 0 539) (re.++ (re.union (str.to_re "}_") (re.union (str.to_re "M") (re.union (str.to_re "_") (str.to_re "w_")))) (re.++ (re.union (str.to_re "Ls") (re.union (str.to_re "wmg") (re.union (str.to_re "6Ri") (str.to_re "F7<")))) (re.++ (re.union (str.to_re "wf") (re.union (str.to_re "4b`") (re.union (str.to_re "0") (str.to_re ")\\")))) (re.union (str.to_re "&") (re.union (str.to_re ">tK") (re.union (str.to_re "ipk") (str.to_re "e")))))))) ((_ re.loop 14 329) (re.++ (re.union (str.to_re "T") (re.union (str.to_re "6~a") (re.union (str.to_re "+}|") (str.to_re "QD")))) (re.++ (re.union (str.to_re "M]") (re.union (str.to_re "f~>") (re.union (str.to_re "*i") (str.to_re "A(2")))) (re.++ (re.union (str.to_re "1a") (re.union (str.to_re "yP") (re.union (str.to_re ",:") (str.to_re "g)")))) (re.union (str.to_re "lvR") (re.union (str.to_re "%") (re.union (str.to_re "iZ") (str.to_re "1l"))))))))))))))
(assert (not (str.in_re var0 (re.++ (re.* re.allchar) (re.++ (re.union (str.to_re "<") (re.union (str.to_re ">") (re.union (str.to_re "'") (re.union (str.to_re "\u0022") (str.to_re "&"))))) (re.* re.allchar))))))
(assert (<= 50 (str.len var0)))
(check-sat)
(get-model)
